09-routing/solutions/XSH-n20-k4-07.opt.sol
Route #1: 9 5 18 14
Route #2: 1 10 6 17 11 20 15
Route #3: 8 7 12 2
Route #4: 4 19 16 3 13
Cost 730
